TCS_Benchmarks/redos_fix/corpus1_output_distinct_3451_3450_40_0.txt
(.*)([\d.]+)
(.*)(Video codec ([\w\-]+) width (\d+) height (\d+) profile (\d+) fps )([\d.]+)